; sanic :: corpus-study/repo_src/sanic/sanic/server/websockets/impl.py :: LOCK 'WebsocketImplProtocol.process_event_mutex' :: naive encoding (verdict: unsat)
; Generated by snf-pipeline (encoder.py) -- run with any
; SMT-LIB2-compliant solver, e.g. `z3 sanic__corpus-study_repo_src_sanic_sanic_server_websockets_impl.py__WebsocketImplProtocol.process_event_mutex__naive.smt2`
; benchmark generated from python API
(set-info :status unknown)
(assert
 false)
(check-sat)
